FILENAME:   /home/mcs001/s132664/testsets/IP/miplib2017/fastxgemm-n3r21s3t6.mps.gz
SETTINGS:   settings_final_nopeek_norelabel_extend_norestarts
TIMELIMIT:  7200
OUTPUTNAME: final_miplib_symretope_if_extended_generating_set_cpx_v802__settings_final_nopeek_norelabel_extend_norestarts__3__
BINNAME:    bin/sbcs.linux.x86_64.gnu.opt.cpx
BASENAME:   fastxgemm-n3r21s3t6.mps.gz
SEED:       3
@01 /home/mcs001/s132664/testsets/IP/miplib2017/fastxgemm-n3r21s3t6.mps.gz ===========
@02 fastxgemm-n3r21s3t6.mps.gz
@03 1686663699
SCIP version 8.0.2 [precision: 8 byte] [memory: block] [mode: optimized] [LP solver: CPLEX 20.1.0.0] [GitHash: 5f0473c]
Copyright (C) 2002-2022 Konrad-Zuse-Zentrum fuer Informationstechnik Berlin (ZIB)

Symretope propagation methods - (c) Jasper van Doornmalen, Christopher Hojny.
[GitHash: 2fd0484]

reading parameter file <../settings/settings_final_nopeek_norelabel_extend_norestarts.set> ...

Changed settings:
limits/time = 7200
limits/restarts = 0
misc/usesymmetry = 1
randomization/randomseedshift = 3
constraints/orbisack/sepafreq = -1
constraints/symresack/sepafreq = -1
propagating/symmetry/addsymresacks = TRUE
propagating/symmetry/detectsubgroups = FALSE
propagating/symmetry/relabelsymretopes = 0
propagating/symmetry/extendgenerators = TRUE
propagating/symmetry/ofsymcomptiming = 0
constraints/symretope/sepafreq = -1
constraints/symretope/peek = FALSE


solving problem ...

original problem has 18684 variables (378 bin, 0 int, 0 impl, 18306 cont) and 219368 constraints
presolving:
(round 1, exhaustive) 0 del vars, 61236 del conss, 0 add conss, 0 chg bounds, 0 chg sides, 0 chg coeffs, 0 upgd conss, 0 impls, 189 clqs
(round 2, exhaustive) 0 del vars, 61236 del conss, 0 add conss, 0 chg bounds, 0 chg sides, 0 chg coeffs, 93646 upgd conss, 0 impls, 189 clqs
(round 3, exhaustive) 25 del vars, 61236 del conss, 0 add conss, 0 chg bounds, 0 chg sides, 0 chg coeffs, 93646 upgd conss, 2322 impls, 1047 clqs
(round 4, exhaustive) 50 del vars, 61297 del conss, 0 add conss, 0 chg bounds, 0 chg sides, 0 chg coeffs, 93646 upgd conss, 2322 impls, 985 clqs
(round 5, medium)     50 del vars, 61446 del conss, 0 add conss, 0 chg bounds, 0 chg sides, 0 chg coeffs, 93646 upgd conss, 2322 impls, 985 clqs
(round 6, exhaustive) 75 del vars, 61446 del conss, 0 add conss, 0 chg bounds, 0 chg sides, 0 chg coeffs, 93646 upgd conss, 2322 impls, 927 clqs
(round 7, exhaustive) 100 del vars, 61559 del conss, 0 add conss, 0 chg bounds, 0 chg sides, 0 chg coeffs, 93646 upgd conss, 2322 impls, 864 clqs
(round 8, medium)     100 del vars, 61774 del conss, 0 add conss, 0 chg bounds, 0 chg sides, 0 chg coeffs, 93646 upgd conss, 2322 impls, 864 clqs
(round 9, exhaustive) 125 del vars, 61774 del conss, 0 add conss, 0 chg bounds, 0 chg sides, 0 chg coeffs, 93646 upgd conss, 2322 impls, 812 clqs
(round 10, exhaustive) 150 del vars, 61817 del conss, 0 add conss, 0 chg bounds, 0 chg sides, 0 chg coeffs, 93646 upgd conss, 2322 impls, 756 clqs
(round 11, exhaustive) 175 del vars, 61928 del conss, 0 add conss, 0 chg bounds, 0 chg sides, 0 chg coeffs, 93646 upgd conss, 2322 impls, 698 clqs
(round 12, medium)     175 del vars, 62073 del conss, 0 add conss, 0 chg bounds, 0 chg sides, 0 chg coeffs, 93646 upgd conss, 2322 impls, 698 clqs
(round 13, exhaustive) 200 del vars, 62073 del conss, 0 add conss, 0 chg bounds, 0 chg sides, 0 chg coeffs, 93646 upgd conss, 2322 impls, 756 clqs
(round 14, medium)     200 del vars, 62286 del conss, 0 add conss, 0 chg bounds, 0 chg sides, 0 chg coeffs, 93646 upgd conss, 2322 impls, 756 clqs
(round 15, exhaustive) 225 del vars, 62286 del conss, 0 add conss, 0 chg bounds, 0 chg sides, 0 chg coeffs, 93646 upgd conss, 2322 impls, 696 clqs
(round 16, medium)     225 del vars, 62418 del conss, 0 add conss, 0 chg bounds, 0 chg sides, 0 chg coeffs, 93646 upgd conss, 2322 impls, 696 clqs
(round 17, exhaustive) 250 del vars, 62418 del conss, 0 add conss, 0 chg bounds, 0 chg sides, 0 chg coeffs, 93646 upgd conss, 2322 impls, 640 clqs
(round 18, exhaustive) 275 del vars, 62529 del conss, 0 add conss, 0 chg bounds, 0 chg sides, 0 chg coeffs, 93646 upgd conss, 2322 impls, 584 clqs
(round 19, medium)     275 del vars, 62658 del conss, 0 add conss, 0 chg bounds, 0 chg sides, 0 chg coeffs, 93646 upgd conss, 2322 impls, 584 clqs
(round 20, exhaustive) 300 del vars, 62658 del conss, 0 add conss, 0 chg bounds, 0 chg sides, 0 chg coeffs, 93646 upgd conss, 2322 impls, 530 clqs
(round 21, exhaustive) 325 del vars, 62738 del conss, 0 add conss, 0 chg bounds, 0 chg sides, 0 chg coeffs, 93646 upgd conss, 2322 impls, 534 clqs
(round 22, exhaustive) 350 del vars, 62837 del conss, 0 add conss, 0 chg bounds, 0 chg sides, 0 chg coeffs, 93646 upgd conss, 2322 impls, 488 clqs
(round 23, medium)     350 del vars, 62978 del conss, 0 add conss, 0 chg bounds, 0 chg sides, 0 chg coeffs, 93646 upgd conss, 2322 impls, 488 clqs
(round 24, exhaustive) 375 del vars, 62978 del conss, 0 add conss, 0 chg bounds, 0 chg sides, 0 chg coeffs, 93646 upgd conss, 2322 impls, 438 clqs
   (16.9s) probing cycle finished: starting next cycle
   (21.0s) symmetry computation started: requiring (bin +, int +, cont +), (fixed: bin -, int -, cont -)
   (23.7s) symmetry computation finished: 7 generators found (max: 1500, log10 of symmetry group size: 6.2)
presolving (25 rounds: 25 fast, 25 medium, 18 exhaustive):
 378 deleted vars, 63071 deleted constraints, 16 added constraints, 0 tightened bounds, 0 added holes, 0 changed sides, 0 changed coefficients
 3456 implications, 432 cliques
presolved problem has 18306 variables (378 bin, 0 int, 756 impl, 17172 cont) and 156313 constraints
  91584 constraints of type <varbound>
      1 constraints of type <knapsack>
    192 constraints of type <setppc>
  64486 constraints of type <linear>
     10 constraints of type <orbisack>
      5 constraints of type <symretope>
     35 constraints of type <logicor>
Presolving Time: 23.36

 time | node  | left  |LP iter|LP it/n|mem/heur|mdpt |vars |cons |rows |cuts |sepa|confs|strbr|  dualbound   | primalbound  |  gap   | compl. 
 46.7s|     1 |     0 |  9581 |     - |   751M |   0 |  18k| 156k| 156k|   0 |  0 |  26 |   0 | 8.400000e+01 |      --      |    Inf | unknown
  642s|     1 |     0 | 56305 |     - |   784M |   0 |  18k| 156k| 156k|  11 |  1 |  26 |   0 | 8.400000e+01 |      --      |    Inf | unknown
  644s|     1 |     0 | 56418 |     - |   809M |   0 |  18k| 156k| 156k|  12 |  3 |  26 |   0 | 8.400000e+01 |      --      |    Inf | unknown
  646s|     1 |     0 | 56557 |     - |   833M |   0 |  18k| 156k| 156k|  13 |  4 |  26 |   0 | 8.400000e+01 |      --      |    Inf | unknown
  649s|     1 |     0 | 56665 |     - |   858M |   0 |  18k| 156k| 156k|  14 |  5 |  26 |   0 | 8.400000e+01 |      --      |    Inf | unknown
  651s|     1 |     0 | 56816 |     - |   881M |   0 |  18k| 156k| 156k|  15 |  6 |  26 |   0 | 8.400000e+01 |      --      |    Inf | unknown
  654s|     1 |     0 | 56980 |     - |   908M |   0 |  18k| 156k| 156k|  16 |  7 |  26 |   0 | 8.400000e+01 |      --      |    Inf | unknown
  656s|     1 |     0 | 57090 |     - |   933M |   0 |  18k| 156k| 156k|  18 |  8 |  26 |   0 | 8.400000e+01 |      --      |    Inf | unknown
  659s|     1 |     0 | 57239 |     - |   958M |   0 |  18k| 156k| 156k|  19 |  9 |  26 |   0 | 8.400000e+01 |      --      |    Inf | unknown
  662s|     1 |     0 | 57385 |     - |   981M |   0 |  18k| 156k| 156k|  20 | 10 |  26 |   0 | 8.400000e+01 |      --      |    Inf | unknown
  665s|     1 |     0 | 57506 |     - |  1007M |   0 |  18k| 156k| 156k|  21 | 11 |  26 |   0 | 8.400000e+01 |      --      |    Inf | unknown
 1466s|     1 |     2 |120528 |     - |  1017M |   0 |  18k| 156k| 156k|  21 | 11 |  48 |  36 | 8.400000e+01 |      --      |    Inf | unknown
 4538s|   100 |   101 |467722 |4143.6 |  1088M |  94 |  18k| 156k| 156k|  30 |  1 |  48 |  99 | 8.400000e+01 |      --      |    Inf | unknown

SCIP Status        : solving was interrupted [time limit reached]
Solving Time (sec) : 7200.06
Solving Nodes      : 123
Primal Bound       : +1.00000000000000e+20 (0 solutions)
Dual Bound         : +8.40000000000000e+01
Gap                : infinite
SCIP Status        : solving was interrupted [time limit reached]
Total Time         :    7201.04
  solving          :    7200.06
  presolving       :      23.36 (included in solving)
  reading          :       0.98
  copying          :       1.34 (4 #copies) (minimal 0.33, maximal 0.35, average 0.34)
Original Problem   :
  Problem name     : fastxgemm-n3r21s3t6
  Variables        : 18684 (378 binary, 0 integer, 0 implicit integer, 18306 continuous)
  Constraints      : 219368 initial, 219368 maximal
  Objective        : minimize, 1863 non-zeros (abs.min = 0.001, abs.max = 1000)
Presolved Problem  :
  Problem name     : t_fastxgemm-n3r21s3t6
  Variables        : 18306 (378 binary, 0 integer, 756 implicit integer, 17172 continuous)
  Constraints      : 156313 initial, 156363 maximal
  Objective        : minimize, 1863 non-zeros (abs.min = 0.001, abs.max = 1000)
  Nonzeros         : 470040 constraint, 1055 clique table
Presolvers         :   ExecTime  SetupTime  Calls  FixedVars   AggrVars   ChgTypes  ChgBounds   AddHoles    DelCons    AddCons   ChgSides   ChgCoefs
  boundshift       :       0.00       0.00      0          0          0          0          0          0          0          0          0          0
  convertinttobin  :       0.00       0.00      0          0          0          0          0          0          0          0          0          0
  domcol           :       2.11       0.00     16          0          0          0          0          0          0          0          0          0
  dualagg          :       0.00       0.00      0          0          0          0          0          0          0          0          0          0
  dualcomp         :       1.95       0.00     16          0          0          0          0          0          0          0          0          0
  dualinfer        :       0.00       0.00      0          0          0          0          0          0          0          0          0          0
  dualsparsify     :       1.32       0.00      1          0          0          0          0          0          0          0          0          0
  gateextraction   :       0.00       0.00     16          0          0          0          0          0          0          0          0          0
  implics          :       0.00       0.00     25          0          0          0          0          0          0          0          0          0
  inttobinary      :       0.00       0.00      0          0          0          0          0          0          0          0          0          0
  qpkktref         :       0.00       0.00      0          0          0          0          0          0          0          0          0          0
  redvub           :       0.00       0.00      0          0          0          0          0          0          0          0          0          0
  sparsify         :       0.90       0.00      4          0          0          0          0          0          0          0          0          0
  stuffing         :       0.00       0.00      0          0          0          0          0          0          0          0          0          0
  trivial          :       0.01       0.00     25          0          0          0          0          0          0          0          0          0
  tworowbnd        :       0.00       0.00      0          0          0          0          0          0          0          0          0          0
  dualfix          :       0.02       0.00     25          0          0          0          0          0          0          0          0          0
  genvbounds       :       0.00       0.00      0          0          0          0          0          0          0          0          0          0
  probing          :       8.51       0.00     16          0        378          0          0          0          0          0          0          0
  pseudoobj        :       0.00       0.00      0          0          0          0          0          0          0          0          0          0
  symmetry         :       2.72       0.00      1          0          0          0          0          0          1         16          0          0
  vbounds          :       0.00       0.00      5          0          0          0          0          0          0          0          0          0
  varbound         :       1.28       0.00     46          0          0          0          0          0       1404          0          0          0
  knapsack         :       0.01       0.00     62          0          0          0          0          0          0          0          0          0
  setppc           :       0.02       0.00     62          0          0          0          0          0        375          0          0          0
  linear           :       4.18       0.13     43          0          0          0          0          0      61236          0          0          0
  orbisack         :       0.00       0.00      0          0          0          0          0          0          0          0          0          0
  symretope        :       0.00       0.00      0          0          0          0          0          0          0          0          0          0
  logicor          :       0.02       0.00     62          0          0          0          0          0         55          0          0          0
  bounddisjunction :       0.00       0.00      0          0          0          0          0          0          0          0          0          0
  benders          :       0.00       0.00      0          0          0          0          0          0          0          0          0          0
  components       :       0.08       0.00      1          0          0          0          0          0          0          0          0          0
  root node        :          -          -      -          0          -          -          0          -          -          -          -          -
Constraints        :     Number  MaxNumber  #Separate #Propagate    #EnfoLP    #EnfoRelax  #EnfoPS    #Check   #ResProp    Cutoffs    DomReds       Cuts    Applied      Conss   Children
  benderslp        :          0          0          0          0        142          0          0         27          0          0          0          0          0          0          0
  integral         :          0          0          0          0        142          0          0         27          0          0       1136          0          0          1        244
  varbound         :      91584      91584         10      11899          0          0          0          4          1          0         11          0          0          0          0
  knapsack         :          1          1         10       9071          0          0          0          3          0          0          0          0          0          0          0
  setppc           :        192+       193         10      11899          0          0          0          2        147          2        143          0          0          0          0
  linear           :      64486+     64487         10      11897          0          0          0          0        316         12       2999          0          0          0          0
  orbisack         :         10         10          0         72          0          0          0          0         56          2         11          0          0          0          0
  symretope        :          5          5          0        243          0          0          0          0         36          0          4          0          0          0          0
  logicor          :         35+        43         10        965          0          0          0          0          2          0          0          0          0          0          0
  bounddisjunction :          0+        40          0        149          0          0          0          0          0          0          0          0          0          0          0
  benders          :          0          0          0          0          0          0          0          0          0          0          0          0          0          0          0
  countsols        :          0          0          0          0          0          0          0          0          0          0          0          0          0          0          0
  components       :          0          0          0          0          0          0          0          0          0          0          0          0          0          0          0
Constraint Timings :  TotalTime  SetupTime   Separate  Propagate     EnfoLP     EnfoPS     EnfoRelax   Check    ResProp    SB-Prop
  benderslp        :       0.00       0.00       0.00       0.00       0.00       0.00       0.00       0.00       0.00       0.00
  integral         :    2164.20       0.00       0.00       0.00    2164.20       0.00       0.00       0.00       0.00       0.00
  varbound         :       2.10       0.00       0.38       1.61       0.00       0.00       0.00       0.03       0.00       0.08
  knapsack         :       0.03       0.00       0.01       0.02       0.00       0.00       0.00       0.00       0.00       0.00
  setppc           :       0.53       0.00       0.00       0.44       0.00       0.00       0.00       0.00       0.00       0.09
  linear           :       3.50       0.13       0.17       2.77       0.00       0.00       0.00       0.00       0.00       0.43
  orbisack         :       0.00       0.00       0.00       0.00       0.00       0.00       0.00       0.00       0.00       0.00
  symretope        :       0.00       0.00       0.00       0.00       0.00       0.00       0.00       0.00       0.00       0.00
  logicor          :       0.00       0.00       0.00       0.00       0.00       0.00       0.00       0.00       0.00       0.00
  bounddisjunction :       0.00       0.00       0.00       0.00       0.00       0.00       0.00       0.00       0.00       0.00
  benders          :       0.00       0.00       0.00       0.00       0.00       0.00       0.00       0.00       0.00       0.00
  countsols        :       0.00       0.00       0.00       0.00       0.00       0.00       0.00       0.00       0.00       0.00
  components       :       0.00       0.00       0.00       0.00       0.00       0.00       0.00       0.00       0.00       0.00
Propagators        : #Propagate   #ResProp    Cutoffs    DomReds
  dualfix          :          1          0          0          0
  genvbounds       :          0          0          0          0
  nlobbt           :          0          0          0          0
  obbt             :          0          0          0          0
  probing          :          0          0          0          0
  pseudoobj        :        551          0          0          0
  redcost          :        300          0          0          0
  rootredcost      :          1          0          0          0
  symmetry         :          0          0          0          0
  vbounds          :       4994         56          0       8760
Propagator Timings :  TotalTime  SetupTime   Presolve  Propagate    ResProp    SB-Prop
  dualfix          :       0.02       0.00       0.02       0.00       0.00       0.00
  genvbounds       :       0.00       0.00       0.00       0.00       0.00       0.00
  nlobbt           :       0.00       0.00       0.00       0.00       0.00       0.00
  obbt             :       0.00       0.00       0.00       0.00       0.00       0.00
  probing          :       8.51       0.00       8.51       0.00       0.00       0.00
  pseudoobj        :       0.01       0.00       0.00       0.01       0.00       0.00
  redcost          :       0.15       0.00       0.00       0.15       0.00       0.00
  rootredcost      :       0.00       0.00       0.00       0.00       0.00       0.00
  symmetry         :       2.72       0.00       2.72       0.00       0.00       0.00
  vbounds          :       0.29       0.00       0.00       0.25       0.00       0.05
Orbital fixing     :
  vars fixed to 0  :          0
  vars fixed to 1  :          0
Conflict Analysis  :       Time      Calls    Success    DomReds  Conflicts   Literals    Reconvs ReconvLits   Dualrays   Nonzeros   LP Iters   (pool size: [10000,10000])
  propagation      :       0.00          7          7          -        101       45.2         12        6.9          -          -          -
  infeasible LP    :       0.01          2          1          -         12       36.1          9        2.0          1       35.0          0
  bound exceed. LP :       0.00          0          0          -          0        0.0          0        0.0          0        0.0          0
  strong branching :       0.00          0          0          -          0        0.0          0        0.0          -          -          0
  pseudo solution  :       0.00          0          0          -          0        0.0          0        0.0          -          -          -
  applied globally :       0.00          -          -          0         48       23.2          -          -          1          -          -
  applied locally  :          -          -          -          0          0        0.0          -          -          0          -          -
Separators         :   ExecTime  SetupTime      Calls  RootCalls    Cutoffs    DomReds  FoundCuts ViaPoolAdd  DirectAdd    Applied ViaPoolApp  DirectApp      Conss
  cut pool         :       0.23          -         39         20          -          -       2224       1767          -          -          -          -          -    (maximal pool size:       2224)
  aggregation      :       4.59       0.00         14         10          0          0          2          2          0          1          1          0          0
  > cmir           :          -          -          -          -          -          -          -          2          0          1          1          0          -
  > flowcover      :          -          -          -          -          -          -          -          0          0          0          0          0          -
  > knapsackcover  :          -          -          -          -          -          -          -          0          0          0          0          0          -
  cgmip            :       0.00       0.00          0          0          0          0          0          0          0          0          0          0          0
  clique           :       0.00       0.00         10         10          0          0          0          0          0          0          0          0          0
  closecuts        :       0.00       0.00          0          0          0          0          0          0          0          0          0          0          0
  convexproj       :       0.00       0.00          0          0          0          0          0          0          0          0          0          0          0
  disjunctive      :       0.00       0.00          0          0          0          0          0          0          0          0          0          0          0
  eccuts           :       0.00       0.00          0          0          0          0          0          0          0          0          0          0          0
  gauge            :       0.00       0.00          0          0          0          0          0          0          0          0          0          0          0
  gomory           :      11.84       0.00         14         10          0          0       2200       1751          0         15         15          0          0
  > gomorymi       :          -          -          -          -          -          -          -       1751          0         15         15          0          -
  > strongcg       :          -          -          -          -          -          -          -          0          0          0          0          0          -
  impliedbounds    :       0.01       0.00         14         10          0          0          0          0          0          0          0          0          0
  interminor       :       0.00       0.00          0          0          0          0          0          0          0          0          0          0          0
  intobj           :       0.00       0.00          0          0          0          0          0          0          0          0          0          0          0
  mcf              :       0.12       0.00          1          1          0          0          0          0          0          0          0          0          0
  minor            :       0.00       0.00          0          0          0          0          0          0          0          0          0          0          0
  mixing           :       0.16       0.00         14         10          0          0         22         14          0         14         14          0          0
  oddcycle         :       0.00       0.00          0          0          0          0          0          0          0          0          0          0          0
  rapidlearning    :       0.00       0.00          0          0          0          0          0          0          0          0          0          0          0
  rlt              :       0.00       0.00         10         10          0          0          0          0          0          0          0          0          0
  zerohalf         :       0.48       0.00         14         10          0          0          0          0          0          0          0          0          0
Cutselectors       :   ExecTime  SetupTime      Calls  RootCalls   Selected     Forced   Filtered  RootSelec   RootForc   RootFilt 
  hybrid           :       0.02       0.00         16         10         30          0       1737         21          0       1638
Pricers            :   ExecTime  SetupTime      Calls       Vars
  problem variables:       0.00          -          0          0
Branching Rules    :   ExecTime  SetupTime   BranchLP  BranchExt   BranchPS    Cutoffs    DomReds       Cuts      Conss   Children
  allfullstrong    :       0.00       0.00          0          0          0          0          0          0          0          0
  cloud            :       0.00       0.00          0          0          0          0          0          0          0          0
  distribution     :       0.00       0.00          0          0          0          0          0          0          0          0
  fullstrong       :       0.00       0.00          0          0          0          0          0          0          0          0
  inference        :       0.00       0.00          0          0          0          0          0          0          0          0
  leastinf         :       0.00       0.00          0          0          0          0          0          0          0          0
  lookahead        :       0.00       0.00          0          0          0          0          0          0          0          0
  mostinf          :       0.00       0.00          0          0          0          0          0          0          0          0
  multaggr         :       0.00       0.00          0          0          0          0          0          0          0          0
  nodereopt        :       0.00       0.00          0          0          0          0          0          0          0          0
  pscost           :       0.00       0.00          0          0          0          0          0          0          0          0
  random           :       0.00       0.00          0          0          0          0          0          0          0          0
  relpscost        :    2164.20       0.00        142          0          0          0       1136          0          1        244
  vanillafullstrong:       0.00       0.00          0          0          0          0          0          0          0          0
Primal Heuristics  :   ExecTime  SetupTime      Calls      Found       Best
  LP solutions     :       0.00          -          -          0          0
  relax solutions  :       0.00          -          -          0          0
  pseudo solutions :       0.00          -          -          0          0
  strong branching :       0.00          -          -          0          0
  actconsdiving    :       0.00       0.00          0          0          0
  adaptivediving   :       0.00       0.00          0          0          0
  alns             :       5.23       0.00          3          0          0
  bound            :       0.00       0.00          0          0          0
  clique           :       0.53       0.00          1          0          0
  coefdiving       :       0.00       0.00          0          0          0
  completesol      :       0.00       0.00          0          0          0
  conflictdiving   :     479.88       0.00          1          0          0
  crossover        :       0.00       0.00          0          0          0
  dins             :       0.00       0.00          0          0          0
  distributiondivin:       0.01       0.00          0          0          0
  dps              :       0.00       0.00          0          0          0
  dualval          :       0.00       0.00          0          0          0
  farkasdiving     :       0.00       0.00          0          0          0
  feaspump         :     586.86       0.00          1          0          0
  fixandinfer      :       0.00       0.00          0          0          0
  fracdiving       :       0.00       0.00          0          0          0
  gins             :       0.00       0.00          0          0          0
  guideddiving     :       0.00       0.00          0          0          0
  indicator        :       0.00       0.00          0          0          0
  intdiving        :       0.00       0.00          0          0          0
  intshifting      :      59.88       0.00          1          0          0
  linesearchdiving :       0.00       0.00          0          0          0
  localbranching   :       0.00       0.00          0          0          0
  locks            :       0.29       0.00          1          0          0
  lpface           :       0.01       0.00          0          0          0
  mpec             :       0.00       0.00          0          0          0
  multistart       :       0.00       0.00          0          0          0
  mutation         :       0.00       0.00          0          0          0
  nlpdiving        :       0.00       0.00          0          0          0
  objpscostdiving  :       0.00       0.00          0          0          0
  octane           :       0.00       0.00          0          0          0
  ofins            :       0.00       0.00          0          0          0
  oneopt           :       0.00       0.00          0          0          0
  padm             :       0.00       0.00          0          0          0
  proximity        :       0.00       0.00          0          0          0
  pscostdiving     :     366.53       0.00          1          0          0
  randrounding     :       2.32       0.00         19          0          0
  rens             :       2.20       0.00          1          0          0
  reoptsols        :       0.00       0.00          0          0          0
  repair           :       0.00       0.00          0          0          0
  rins             :       0.00       0.00          0          0          0
  rootsoldiving    :       0.00       0.00          0          0          0
  rounding         :       0.81       0.00        125          0          0
  shiftandpropagate:       0.27       0.00          1          0          0
  shifting         :       5.67       0.00         28          0          0
  simplerounding   :       0.00       0.00          0          0          0
  subnlp           :       0.00       0.00          0          0          0
  trivial          :       0.08       0.00          2          0          0
  trivialnegation  :       0.00       0.00          0          0          0
  trustregion      :       0.00       0.00          0          0          0
  trysol           :       0.00       0.00          0          0          0
  twoopt           :       0.00       0.00          0          0          0
  undercover       :       0.00       0.00          0          0          0
  vbounds          :       0.01       0.00          0          0          0
  veclendiving     :       0.00       0.00          0          0          0
  zeroobj          :       0.00       0.00          0          0          0
  zirounding       :       1.10       0.00        122          0          0
  other solutions  :          -          -          -          0          -
LP                 :       Time      Calls Iterations  Iter/call   Iter/sec  Time-0-It Calls-0-It    ItLimit
  primal LP        :      12.51          1          0       0.00       0.00      12.51          1
  dual LP          :    3466.40        159     511963    3390.48     147.69       0.14          8
  lex dual LP      :       0.00          0          0       0.00          -
  barrier LP       :       0.00          0          0       0.00          -       0.00          0
  resolve instable :       0.00          0          0       0.00          -
  diving/probing LP:    1494.69         25     147101    5884.04      98.42
  strong branching :    2156.44        390     362902     930.52     168.29          -          -        664
    (at root node) :          -         36      28743     798.42          -
  conflict analysis:       0.00          0          0       0.00          -
B&B Tree           :
  number of runs   :          1
  nodes            :        123 (122 internal, 1 leaves)
  feasible leaves  :          0
  infeas. leaves   :          0
  objective leaves :          0
  nodes (total)    :        123 (122 internal, 1 leaves)
  nodes left       :        123
  max depth        :        117
  max depth (total):        117
  backtracks       :          1 (0.8%)
  early backtracks :          0 (0.0%)
  nodes exc. ref.  :          0 (0.0%)
  delayed cutoffs  :          0
  repropagations   :          1 (0 domain reductions, 0 cutoffs)
  avg switch length:       1.79
  switching time   :      12.62
Root Node          :
  First LP value   : +8.40000000000000e+01
  First LP Iters   :       9581 (441.93 Iter/sec)
  First LP Time    :      21.68
  Final Dual Bound : +8.40000000000000e+01
  Final Root Iters :      57506
  Root LP Estimate : +8.72324635124362e+02
Solution           :
  Solutions found  :          0 (0 improvements)
  Primal Bound     :          -
  Dual Bound       : +8.40000000000000e+01
  Gap              :   infinite
Integrals          :      Total       Avg%
  primal-dual      :  720005.97     100.00
  primal-ref       :          -          - (not evaluated)
  dual-ref         :          -          - (not evaluated)
written solution information to file <results/final_miplib_symretope_if_extended_generating_set_cpx_v802__settings_final_nopeek_norelabel_extend_norestarts__3__fastxgemm-n3r21s3t6.mps.gz.sol>
@04 1686670901
